;; ===================== PROJECTED CANON (QE) =====================
;; Each clause below is entailed by Proj = ∃W.F over the canonical vocabulary.
;; Units appear first for clarity; OR-clauses (SAT-filtered) follow.
;; ==================================================================

;; Unit Bool constraints (entailed)
(assert patient_has_finding_of_radiologic_infiltrate_of_lung_now)

;; Additional OR-clauses (SAT-filtered)
(assert (or (>= (+ (ite patient_has_finding_of_dyspnea_now 1 0)
       (ite patient_has_finding_of_chest_pain_now 1 0)
       (ite patient_has_finding_of_fever_now 1 0)
       (ite patient_has_finding_of_abnormal_chest_sounds_now 1 0))
    1) patient_has_finding_of_cough_now patient_is_exposed_to_sputum_now (>= (+ (ite patient_has_finding_of_dyspnea_now 1 0)
       (ite patient_has_finding_of_chest_pain_now 1 0)
       (ite patient_has_finding_of_fever_now 1 0)
       (ite patient_has_finding_of_abnormal_chest_sounds_now 1 0))
    2)))
(assert (or (>= (+ (ite patient_has_finding_of_dyspnea_now 1 0)
       (ite patient_has_finding_of_chest_pain_now 1 0)
       (ite patient_has_finding_of_fever_now 1 0)
       (ite patient_has_finding_of_abnormal_chest_sounds_now 1 0))
    1) (>= (+ (ite patient_has_finding_of_dyspnea_now 1 0)
       (ite patient_has_finding_of_chest_pain_now 1 0)
       (ite patient_has_finding_of_fever_now 1 0)
       (ite patient_has_finding_of_abnormal_chest_sounds_now 1 0))
    0) (>= (+ (ite patient_has_finding_of_dyspnea_now 1 0)
       (ite patient_has_finding_of_chest_pain_now 1 0)
       (ite patient_has_finding_of_fever_now 1 0)
       (ite patient_has_finding_of_abnormal_chest_sounds_now 1 0))
    2) patient_is_exposed_to_sputum_now))
(assert (or (>= (+ (ite patient_has_finding_of_dyspnea_now 1 0)
       (ite patient_has_finding_of_chest_pain_now 1 0)
       (ite patient_has_finding_of_fever_now 1 0)
       (ite patient_has_finding_of_abnormal_chest_sounds_now 1 0))
    1) (>= (+ (ite patient_has_finding_of_dyspnea_now 1 0)
       (ite patient_has_finding_of_chest_pain_now 1 0)
       (ite patient_has_finding_of_fever_now 1 0)
       (ite patient_has_finding_of_abnormal_chest_sounds_now 1 0))
    0) (>= (+ (ite patient_has_finding_of_dyspnea_now 1 0)
       (ite patient_has_finding_of_chest_pain_now 1 0)
       (ite patient_has_finding_of_fever_now 1 0)
       (ite patient_has_finding_of_abnormal_chest_sounds_now 1 0))
    2) patient_has_finding_of_cough_now))
(assert (or (>= (+ (ite patient_has_finding_of_dyspnea_now 1 0)
       (ite patient_has_finding_of_chest_pain_now 1 0)
       (ite patient_has_finding_of_fever_now 1 0)
       (ite patient_has_finding_of_abnormal_chest_sounds_now 1 0))
    1) (>= (+ (ite patient_has_finding_of_dyspnea_now 1 0)
       (ite patient_has_finding_of_chest_pain_now 1 0)
       (ite patient_has_finding_of_fever_now 1 0)
       (ite patient_has_finding_of_abnormal_chest_sounds_now 1 0))
    0) (>= (+ (ite patient_has_finding_of_dyspnea_now 1 0)
       (ite patient_has_finding_of_chest_pain_now 1 0)
       (ite patient_has_finding_of_fever_now 1 0)
       (ite patient_has_finding_of_abnormal_chest_sounds_now 1 0))
    2) (>= (+ (ite patient_has_finding_of_dyspnea_now 1 0)
       (ite patient_has_finding_of_chest_pain_now 1 0)
       (ite patient_has_finding_of_fever_now 1 0)
       (ite patient_has_finding_of_abnormal_chest_sounds_now 1 0))
    (- 1))))
